
Gurobi 6.0.4 (win64) logging started 06/18/15 16:12:14

Read LP format model from file C:\MT\repository\VRPTWMS\instances\mip\freight\N8-C_DV10-C_SV50_F18_3_No_1.lp
Reading time = 0.01 seconds
(null): 353 rows, 217 columns, 1467 nonzeros
Optimize a model with 353 rows, 217 columns and 1467 nonzeros
Model has 648 quadratic constraints
Coefficient statistics:
  Matrix range    [1e+00, 1e+06]
  Objective range [2e+04, 1e+07]
  Bounds range    [1e+00, 1e+06]
  RHS range       [1e+00, 1e+06]
Presolve removed 74 rows and 34 columns
Presolve time: 0.04s
Presolved: 1505 rows, 828 columns, 6840 nonzeros
Variable types: 581 continuous, 247 integer (197 binary)
Found heuristic solution: objective 8.383260e+07

Root relaxation: objective 1.173363e+07, 100 iterations, 0.00 seconds

    Nodes    |    Current Node    |     Objective Bounds      |     Work
 Expl Unexpl |  Obj  Depth IntInf | Incumbent    BestBd   Gap | It/Node Time

     0     0 1.1734e+07    0   25 8.3833e+07 1.1734e+07  86.0%     -    0s
H    0     0                    4.247950e+07 1.1734e+07  72.4%     -    0s
     0     0 1.1792e+07    0   20 4.2480e+07 1.1792e+07  72.2%     -    0s
     0     0 1.2389e+07    0   72 4.2480e+07 1.2389e+07  70.8%     -    0s
H    0     0                    3.219920e+07 1.2389e+07  61.5%     -    0s
     0     0 1.2699e+07    0   36 3.2199e+07 1.2699e+07  60.6%     -    0s
     0     0 1.3810e+07    0   39 3.2199e+07 1.3810e+07  57.1%     -    0s
     0     0 1.3811e+07    0   40 3.2199e+07 1.3811e+07  57.1%     -    0s
     0     0 1.3811e+07    0   39 3.2199e+07 1.3811e+07  57.1%     -    0s
     0     0 1.3811e+07    0   39 3.2199e+07 1.3811e+07  57.1%     -    0s
     0     0 1.3811e+07    0   38 3.2199e+07 1.3811e+07  57.1%     -    0s
     0     0 1.3811e+07    0   41 3.2199e+07 1.3811e+07  57.1%     -    0s
     0     0 1.3811e+07    0   41 3.2199e+07 1.3811e+07  57.1%     -    0s
     0     2 1.3811e+07    0   41 3.2199e+07 1.3811e+07  57.1%     -    0s
H   36    31                    3.215490e+07 1.3927e+07  56.7%  27.9    0s
H   94    64                    3.211780e+07 1.6899e+07  47.4%  39.5    0s
*  477   256              13    3.206780e+07 2.1690e+07  32.4%  32.7    0s
H  813   358                    3.206160e+07 2.1797e+07  32.0%  36.0    1s
H 1120   424                    3.203950e+07 2.1828e+07  31.9%  37.9    1s
  3340   716     cutoff   25      3.2040e+07 2.2007e+07  31.3%  43.5    5s

Cutting planes:
  Cover: 1
  Implied bound: 3
  MIR: 1
  Flow cover: 1
  GUB cover: 4

Explored 4649 nodes (246692 simplex iterations) in 8.03 seconds
Thread count was 2 (of 4 available processors)

Optimal solution found (tolerance 1.00e-04)
Best objective 3.203950000000e+07, best bound 3.203950000000e+07, gap 0.0%
k_c1	100000.0
k_c2	52500.0
k_c3	70000.0
k_c4	30000.0
k_c5	20000.0
k_c6	30000.0
k_c7	90000.0
k_c8	100000.0
k_dN	-0.0
kDash_c1	70000.0
kDash_c2	32500.0
kDash_c3	30000.0
kDash_c4	-0.0
kDash_c5	-0.0
kDash_c6	0.0
kDash_c7	30000.0
kDash_c8	70000.0
o_1	-0.0
o_2	0.0
o_3	0.0
o_4	-0.0
o_5	-0.0
o_6	0.0
o_7	0.0
o_8	0.0
p_1	0.0
p_2	0.0
p_3	0.0
p_4	-0.0
p_5	-0.0
p_6	-0.0
p_7	0.0
p_8	0.0
phi_c1	158217.0
phi_c2	60917.0
phi_c3	153935.0
phi_c4	13146.0
phi_c5	16170.0
phi_c6	32627.0
phi_c7	160615.0
phi_c8	169764.0
phi_d0	180000.0
phi_dN	-0.0
pi_c1	500000.0
pi_c2	480001.0
pi_c3	430001.0
pi_c4	500000.0
pi_c5	400000.0
pi_c6	400000.0
pi_c7	500000.0
pi_c8	500000.0
pi_dN	0.0
tauD_c1	100000.0
tauD_c2	500000.0
tauD_c3	300000.0
tauD_c4	650000.0
tauD_c5	800000.0
tauD_c6	585800.0
tauD_c7	505931.0
tauD_c8	375050.0
tauD_d0	-0.0
tauD_dN	1000000.0
tauS_c1	838600.0
tauS_c2	-0.0
tauS_c3	827375.0
tauS_c4	349375.0
tauS_c5	228825.0
tauS_c6	261200.0
tauS_c7	880475.0
tauS_c8	881750.0
tauS_d0	-0.0
tauS_dN	116850.0
x_c1_c3	1.0
x_c2_c6	1.0
x_c3_c5	1.0
x_c4_dN	1.0
x_c5_dN	1.0
x_c6_dN	1.0
x_c7_c4	1.0
x_c8_c2	1.0
x_d0_c1	1.0
x_d0_c7	1.0
x_d0_c8	1.0
